problems/csplib-prob030/BalancedAcademicCurriculumProblem-models/compact/O0/minion/model-bacp-10-solution000001.solution
language Essence 1.3

letting curr be
        function(1 --> 1, 2 --> 10, 3 --> 9, 4 --> 9, 5 --> 9, 6 --> 9, 7 --> 8, 8 --> 8, 9 --> 2, 10 --> 8, 11 --> 8,
                 12 --> 8, 13 --> 1, 14 --> 7, 15 --> 7, 16 --> 7, 17 --> 7, 18 --> 1, 19 --> 7, 20 --> 1, 21 --> 6,
                 22 --> 6, 23 --> 6, 24 --> 6, 25 --> 1, 26 --> 5, 27 --> 5, 28 --> 5, 29 --> 1, 30 --> 5, 31 --> 5,
                 32 --> 4, 33 --> 4, 34 --> 4, 35 --> 3, 36 --> 1, 37 --> 3, 38 --> 3, 39 --> 3, 40 --> 2, 41 --> 2,
                 42 --> 2, 43 --> 2, 44 --> 2, 45 --> 2, 46 --> 1, 47 --> 1, 48 --> 2, 49 --> 10, 50 --> 1)
