problems/csplib-prob030/BalancedAcademicCurriculumProblem-models/compact/O2/minion/model-bacp-10-solution000001.eprime-solution
language ESSENCE' 1.0

letting curr_Function1D be
        [1, 10, 9, 9, 9, 9, 8, 8, 2, 8, 8, 8, 1, 7, 7, 7, 7, 1, 7, 1, 6, 6, 6, 6, 1, 5, 5, 5, 1, 5, 5, 4, 4, 4, 3, 1, 3,
         3, 3, 2, 2, 2, 2, 2, 2, 1, 1, 2, 10, 1;
             int(1..50)]
